(set-info :smt-lib-version 2.6)
(set-logic QF_LRA)
(set-info :source |
Fully parameterized specification and verification of a synchronizer   
circuit modeling metastability at various levels of refinement.     
A paper describing this specification, to be published in Designing     
Correct Circuits (DCC), 2006, is available from the authors.            

Geoffrey Brown, Indiana University <geobrown@cs.indiana.edu>
Lee Pike, Galois Connections, Inc. <leepike@galois.com>

Translated into CVC format by Leonardo de Moura.

This benchmark was automatically translated into SMT-LIB format from
CVC format using CVC Lite

|)
(set-info :category "industrial")
(set-info :status sat)
(declare-fun x_0 () Bool)
(declare-fun x_1 () Bool)
(declare-fun x_2 () Real)
(declare-fun x_3 () Real)
(declare-fun x_4 () Bool)
(declare-fun x_5 () Bool)
(declare-fun x_6 () Real)
(declare-fun x_7 () Real)
(declare-fun x_8 () Bool)
(declare-fun x_9 () Bool)
(declare-fun x_10 () Real)
(declare-fun x_11 () Real)
(declare-fun x_12 () Bool)
(declare-fun x_13 () Bool)
(declare-fun x_14 () Real)
(declare-fun x_15 () Real)
(declare-fun x_16 () Bool)
(declare-fun x_17 () Bool)
(declare-fun x_18 () Real)
(declare-fun x_19 () Real)
(declare-fun x_20 () Bool)
(declare-fun x_21 () Bool)
(declare-fun x_22 () Real)
(declare-fun x_23 () Real)
(declare-fun x_24 () Bool)
(declare-fun x_25 () Bool)
(declare-fun x_26 () Real)
(declare-fun x_27 () Real)
(declare-fun x_28 () Bool)
(declare-fun x_29 () Bool)
(declare-fun x_30 () Real)
(declare-fun x_31 () Real)
(declare-fun x_32 () Bool)
(declare-fun x_33 () Bool)
(declare-fun x_34 () Real)
(declare-fun x_35 () Real)
(declare-fun x_36 () Real)
(declare-fun x_37 () Real)
(declare-fun x_38 () Real)
(declare-fun x_39 () Real)
(declare-fun x_40 () Real)
(declare-fun x_41 () Real)
(declare-fun x_42 () Real)
(declare-fun x_43 () Real)
(declare-fun x_44 () Real)
(declare-fun x_45 () Real)
(declare-fun x_46 () Real)
(declare-fun x_47 () Real)
(declare-fun x_48 () Real)
(declare-fun x_49 () Real)
(declare-fun x_50 () Real)
(declare-fun x_51 () Real)
(declare-fun x_52 () Real)
(declare-fun x_53 () Real)
(declare-fun x_54 () Real)
(declare-fun x_55 () Real)
(declare-fun x_56 () Real)
(declare-fun x_57 () Real)
(declare-fun x_58 () Real)
(declare-fun x_59 () Real)
(declare-fun x_60 () Real)
(declare-fun x_61 () Real)
(declare-fun x_62 () Real)
(declare-fun x_63 () Real)
(declare-fun x_64 () Real)
(declare-fun x_65 () Real)
(declare-fun x_66 () Real)
(declare-fun x_67 () Real)
(declare-fun x_68 () Real)
(declare-fun x_69 () Real)
(declare-fun x_70 () Real)
(declare-fun x_71 () Real)
(declare-fun x_72 () Real)
(declare-fun x_73 () Real)
(declare-fun x_74 () Real)
(declare-fun x_75 () Real)
(declare-fun x_76 () Real)
(declare-fun x_77 () Real)
(declare-fun x_78 () Real)
(declare-fun x_79 () Real)
(declare-fun x_80 () Real)
(declare-fun x_81 () Real)
(declare-fun x_82 () Real)
(declare-fun x_83 () Real)
(declare-fun x_84 () Real)
(declare-fun x_85 () Real)
(declare-fun x_86 () Real)
(declare-fun x_87 () Real)
(declare-fun x_88 () Real)
(declare-fun x_89 () Real)
(declare-fun x_90 () Bool)
(declare-fun x_91 () Bool)
(declare-fun x_92 () Real)
(declare-fun x_93 () Bool)
(declare-fun x_94 () Bool)
(declare-fun x_95 () Bool)
(declare-fun x_96 () Bool)
(declare-fun x_97 () Bool)
(declare-fun x_98 () Real)
(declare-fun x_99 () Bool)
(declare-fun x_100 () Real)
(declare-fun x_101 () Real)
(declare-fun x_102 () Real)
(declare-fun x_103 () Bool)
(declare-fun x_104 () Real)
(declare-fun x_105 () Bool)
(declare-fun x_106 () Bool)
(declare-fun x_107 () Real)
(declare-fun x_108 () Bool)
(declare-fun x_109 () Real)
(declare-fun x_110 () Real)
(declare-fun x_111 () Real)
(declare-fun x_112 () Bool)
(declare-fun x_113 () Real)
(declare-fun x_114 () Bool)
(declare-fun x_115 () Bool)
(declare-fun x_116 () Real)
(declare-fun x_117 () Bool)
(declare-fun x_118 () Real)
(declare-fun x_119 () Real)
(declare-fun x_120 () Real)
(declare-fun x_121 () Bool)
(declare-fun x_122 () Real)
(declare-fun x_123 () Bool)
(declare-fun x_124 () Bool)
(declare-fun x_125 () Real)
(declare-fun x_126 () Bool)
(declare-fun x_127 () Real)
(declare-fun x_128 () Real)
(declare-fun x_129 () Real)
(declare-fun x_130 () Bool)
(declare-fun x_131 () Real)
(declare-fun x_132 () Bool)
(declare-fun x_133 () Bool)
(declare-fun x_134 () Real)
(declare-fun x_135 () Bool)
(declare-fun x_136 () Real)
(declare-fun x_137 () Real)
(declare-fun x_138 () Real)
(declare-fun x_139 () Bool)
(declare-fun x_140 () Real)
(declare-fun x_141 () Bool)
(declare-fun x_142 () Bool)
(declare-fun x_143 () Real)
(declare-fun x_144 () Bool)
(declare-fun x_145 () Real)
(declare-fun x_146 () Real)
(declare-fun x_147 () Real)
(declare-fun x_148 () Bool)
(declare-fun x_149 () Real)
(declare-fun x_150 () Bool)
(declare-fun x_151 () Bool)
(declare-fun x_152 () Real)
(declare-fun x_153 () Bool)
(declare-fun x_154 () Real)
(declare-fun x_155 () Real)
(declare-fun x_156 () Real)
(declare-fun x_157 () Bool)
(declare-fun x_158 () Real)
(declare-fun x_159 () Bool)
(declare-fun x_160 () Bool)
(declare-fun x_161 () Real)
(declare-fun x_162 () Bool)
(declare-fun x_163 () Real)
(declare-fun x_164 () Real)
(declare-fun x_165 () Real)
(declare-fun x_166 () Bool)
(declare-fun x_167 () Real)
(declare-fun x_168 () Real)
(declare-fun x_169 () Bool)
(declare-fun x_170 () Bool)
(declare-fun x_171 () Bool)
(declare-fun x_172 () Bool)
(declare-fun x_173 () Real)
(declare-fun x_174 () Bool)
(declare-fun x_175 () Real)
(declare-fun x_176 () Real)
(declare-fun x_177 () Real)
(declare-fun x_178 () Real)
(assert (let ((?v_18 (ite (<= x_36 x_37) x_36 x_37)) (?v_16 (ite (<= x_45 x_46) x_45 x_46)) (?v_14 (ite (<= x_50 x_51) x_50 x_51)) (?v_12 (ite (<= x_55 x_56) x_55 x_56)) (?v_10 (ite (<= x_60 x_61) x_60 x_61)) (?v_8 (ite (<= x_65 x_66) x_65 x_66)) (?v_6 (ite (<= x_70 x_71) x_70 x_71)) (?v_4 (ite (<= x_75 x_76) x_75 x_76)) (?v_2 (ite (<= x_80 x_81) x_80 x_81)) (?v_0 (ite (<= x_85 x_86) x_85 x_86)) (?v_137 (= x_47 x_41)) (?v_139 (= x_37 x_46)) (?v_141 (= x_49 x_43)) (?v_135 (= x_36 x_45))) (let ((?v_142 (not ?v_135)) (?v_145 (= x_48 x_42)) (?v_132 (= x_90 x_91)) (?v_133 (= x_7 x_3)) (?v_136 (ite (<= x_37 x_36) x_37 x_36)) (?v_123 (= x_52 x_47)) (?v_125 (= x_46 x_51)) (?v_127 (= x_54 x_49)) (?v_121 (= x_45 x_50))) (let ((?v_128 (not ?v_121)) (?v_131 (= x_53 x_48)) (?v_118 (= x_103 x_90)) (?v_119 (= x_11 x_7)) (?v_122 (ite (<= x_46 x_45) x_46 x_45)) (?v_109 (= x_57 x_52)) (?v_111 (= x_51 x_56)) (?v_113 (= x_59 x_54)) (?v_107 (= x_50 x_55))) (let ((?v_114 (not ?v_107)) (?v_117 (= x_58 x_53)) (?v_104 (= x_112 x_103)) (?v_105 (= x_15 x_11)) (?v_108 (ite (<= x_51 x_50) x_51 x_50)) (?v_95 (= x_62 x_57)) (?v_97 (= x_56 x_61)) (?v_99 (= x_64 x_59)) (?v_93 (= x_55 x_60))) (let ((?v_100 (not ?v_93)) (?v_103 (= x_63 x_58)) (?v_90 (= x_121 x_112)) (?v_91 (= x_19 x_15)) (?v_94 (ite (<= x_56 x_55) x_56 x_55)) (?v_81 (= x_67 x_62)) (?v_83 (= x_61 x_66)) (?v_85 (= x_69 x_64)) (?v_79 (= x_60 x_65))) (let ((?v_86 (not ?v_79)) (?v_89 (= x_68 x_63)) (?v_76 (= x_130 x_121)) (?v_77 (= x_23 x_19)) (?v_80 (ite (<= x_61 x_60) x_61 x_60)) (?v_67 (= x_72 x_67)) (?v_69 (= x_66 x_71)) (?v_71 (= x_74 x_69)) (?v_65 (= x_65 x_70))) (let ((?v_72 (not ?v_65)) (?v_75 (= x_73 x_68)) (?v_62 (= x_139 x_130)) (?v_63 (= x_27 x_23)) (?v_66 (ite (<= x_66 x_65) x_66 x_65)) (?v_53 (= x_77 x_72)) (?v_55 (= x_71 x_76)) (?v_57 (= x_79 x_74)) (?v_51 (= x_70 x_75))) (let ((?v_58 (not ?v_51)) (?v_61 (= x_78 x_73)) (?v_48 (= x_148 x_139)) (?v_49 (= x_31 x_27)) (?v_52 (ite (<= x_71 x_70) x_71 x_70)) (?v_39 (= x_82 x_77)) (?v_41 (= x_76 x_81)) (?v_43 (= x_84 x_79)) (?v_37 (= x_75 x_80))) (let ((?v_44 (not ?v_37)) (?v_47 (= x_83 x_78)) (?v_34 (= x_157 x_148)) (?v_35 (= x_35 x_31)) (?v_38 (ite (<= x_76 x_75) x_76 x_75)) (?v_25 (= x_87 x_82)) (?v_27 (= x_81 x_86)) (?v_29 (= x_89 x_84)) (?v_23 (= x_80 x_85))) (let ((?v_30 (not ?v_23)) (?v_33 (= x_88 x_83)) (?v_20 (= x_166 x_157)) (?v_21 (= x_167 x_35)) (?v_24 (ite (<= x_81 x_80) x_81 x_80)) (?v_22 (= x_170 x_33)) (?v_32 (= x_35 x_167)) (?v_36 (= x_33 x_29)) (?v_46 (= x_31 x_35)) (?v_50 (= x_29 x_25)) (?v_60 (= x_27 x_31)) (?v_64 (= x_25 x_21)) (?v_74 (= x_23 x_27)) (?v_78 (= x_21 x_17)) (?v_88 (= x_19 x_23)) (?v_92 (= x_17 x_13)) (?v_102 (= x_15 x_19)) (?v_106 (= x_13 x_9)) (?v_116 (= x_11 x_15)) (?v_120 (= x_9 x_5)) (?v_130 (= x_7 x_11)) (?v_134 (= x_5 x_1)) (?v_144 (= x_3 x_7)) (?v_26 (<= x_84 ?v_2)) (?v_40 (<= x_79 ?v_4)) (?v_54 (<= x_74 ?v_6)) (?v_68 (<= x_69 ?v_8)) (?v_82 (<= x_64 ?v_10)) (?v_96 (<= x_59 ?v_12)) (?v_110 (<= x_54 ?v_14)) (?v_124 (<= x_49 ?v_16)) (?v_138 (<= x_43 ?v_18)) (?v_1 (+ ?v_0 x_40)) (?v_28 (+ ?v_2 x_44)) (?v_3 (+ ?v_2 x_40)) (?v_42 (+ ?v_4 x_44)) (?v_5 (+ ?v_4 x_40)) (?v_56 (+ ?v_6 x_44)) (?v_7 (+ ?v_6 x_40)) (?v_70 (+ ?v_8 x_44)) (?v_9 (+ ?v_8 x_40)) (?v_84 (+ ?v_10 x_44)) (?v_11 (+ ?v_10 x_40)) (?v_98 (+ ?v_12 x_44)) (?v_13 (+ ?v_12 x_40)) (?v_112 (+ ?v_14 x_44)) (?v_15 (+ ?v_14 x_40)) (?v_126 (+ ?v_16 x_44)) (?v_17 (+ ?v_16 x_40)) (?v_140 (+ ?v_18 x_44)) (?v_19 (+ ?v_18 x_40))) (let ((?v_31 (+ ?v_24 x_40)) (?v_45 (+ ?v_38 x_40)) (?v_59 (+ ?v_52 x_40)) (?v_73 (+ ?v_66 x_40)) (?v_87 (+ ?v_80 x_40)) (?v_101 (+ ?v_94 x_40)) (?v_115 (+ ?v_108 x_40)) (?v_129 (+ ?v_122 x_40)) (?v_143 (+ ?v_136 x_40))) (and (and (and (and (and (and (and (and (and (and (and (and (and (and (and (and (and (and (and (and (and (and (and (and (and (and (and (and (and (and (and (and (and (and (and (and (and (and (and (and (and (and (and (and (and (and (and (and (and (and (and (and (and (and (and (and (and (and (and (and (and (and (and (and (and (and (and (and (and (and (and (and (and (and (and (and (and (and (and (and (and (and (and (and (and (and (and (and (and (and (and (and (and (and (and (and (and (and (and (and (and (and (and (and (and (and (and (and (and (and (and (and (and (and (and (and (and (and (and (and (and (and (and (and (and (and (and (and (and (and (and (and (and (and (> x_38 0) (> x_39 0)) (>= x_40 0)) (< x_40 x_38)) (< x_40 x_39)) (>= x_44 0)) (< x_44 x_38)) (< x_44 x_39)) (or (= x_32 x_33) (= x_34 x_35))) (or (= x_28 x_29) (= x_30 x_31))) (or (= x_24 x_25) (= x_26 x_27))) (or (= x_20 x_21) (= x_22 x_23))) (or (= x_16 x_17) (= x_18 x_19))) (or (= x_12 x_13) (= x_14 x_15))) (or (= x_8 x_9) (= x_10 x_11))) (or (= x_4 x_5) (= x_6 x_7))) (or (= x_0 x_1) (= x_2 x_3))) (or (<= x_87 ?v_0) (<= (- (+ x_87 x_39) x_40) x_86))) (or (<= x_88 ?v_0) (<= (- (+ x_88 x_39) x_40) x_86))) (or (<= x_89 ?v_0) (<= (- (+ x_89 x_38) x_44) x_85))) (<= x_89 (+ ?v_0 x_44))) (<= x_88 ?v_1)) (<= x_87 ?v_1)) (<= ?v_0 x_85)) (<= ?v_0 x_86)) (or (<= x_82 ?v_2) (<= (- (+ x_82 x_39) x_40) x_81))) (or (<= x_83 ?v_2) (<= (- (+ x_83 x_39) x_40) x_81))) (or ?v_26 (<= (- (+ x_84 x_38) x_44) x_80))) (<= x_84 ?v_28)) (<= x_83 ?v_3)) (<= x_82 ?v_3)) (<= ?v_2 x_80)) (<= ?v_2 x_81)) (or (<= x_77 ?v_4) (<= (- (+ x_77 x_39) x_40) x_76))) (or (<= x_78 ?v_4) (<= (- (+ x_78 x_39) x_40) x_76))) (or ?v_40 (<= (- (+ x_79 x_38) x_44) x_75))) (<= x_79 ?v_42)) (<= x_78 ?v_5)) (<= x_77 ?v_5)) (<= ?v_4 x_75)) (<= ?v_4 x_76)) (or (<= x_72 ?v_6) (<= (- (+ x_72 x_39) x_40) x_71))) (or (<= x_73 ?v_6) (<= (- (+ x_73 x_39) x_40) x_71))) (or ?v_54 (<= (- (+ x_74 x_38) x_44) x_70))) (<= x_74 ?v_56)) (<= x_73 ?v_7)) (<= x_72 ?v_7)) (<= ?v_6 x_70)) (<= ?v_6 x_71)) (or (<= x_67 ?v_8) (<= (- (+ x_67 x_39) x_40) x_66))) (or (<= x_68 ?v_8) (<= (- (+ x_68 x_39) x_40) x_66))) (or ?v_68 (<= (- (+ x_69 x_38) x_44) x_65))) (<= x_69 ?v_70)) (<= x_68 ?v_9)) (<= x_67 ?v_9)) (<= ?v_8 x_65)) (<= ?v_8 x_66)) (or (<= x_62 ?v_10) (<= (- (+ x_62 x_39) x_40) x_61))) (or (<= x_63 ?v_10) (<= (- (+ x_63 x_39) x_40) x_61))) (or ?v_82 (<= (- (+ x_64 x_38) x_44) x_60))) (<= x_64 ?v_84)) (<= x_63 ?v_11)) (<= x_62 ?v_11)) (<= ?v_10 x_60)) (<= ?v_10 x_61)) (or (<= x_57 ?v_12) (<= (- (+ x_57 x_39) x_40) x_56))) (or (<= x_58 ?v_12) (<= (- (+ x_58 x_39) x_40) x_56))) (or ?v_96 (<= (- (+ x_59 x_38) x_44) x_55))) (<= x_59 ?v_98)) (<= x_58 ?v_13)) (<= x_57 ?v_13)) (<= ?v_12 x_55)) (<= ?v_12 x_56)) (or (<= x_52 ?v_14) (<= (- (+ x_52 x_39) x_40) x_51))) (or (<= x_53 ?v_14) (<= (- (+ x_53 x_39) x_40) x_51))) (or ?v_110 (<= (- (+ x_54 x_38) x_44) x_50))) (<= x_54 ?v_112)) (<= x_53 ?v_15)) (<= x_52 ?v_15)) (<= ?v_14 x_50)) (<= ?v_14 x_51)) (or (<= x_47 ?v_16) (<= (- (+ x_47 x_39) x_40) x_46))) (or (<= x_48 ?v_16) (<= (- (+ x_48 x_39) x_40) x_46))) (or ?v_124 (<= (- (+ x_49 x_38) x_44) x_45))) (<= x_49 ?v_126)) (<= x_48 ?v_17)) (<= x_47 ?v_17)) (<= ?v_16 x_45)) (<= ?v_16 x_46)) (or (<= x_41 ?v_18) (<= (- (+ x_41 x_39) x_40) x_37))) (or (<= x_42 ?v_18) (<= (- (+ x_42 x_39) x_40) x_37))) (or ?v_138 (<= (- (+ x_43 x_38) x_44) x_36))) (<= x_43 ?v_140)) (<= x_42 ?v_19)) (<= x_41 ?v_19)) (<= ?v_18 x_36)) (<= ?v_18 x_37)) (or (and (and (and (and (and (and (and (and (and (= x_168 0) (= x_169 x_162)) (= ?v_2 x_80)) (<= (+ ?v_2 x_38) x_85)) (or ?v_22 (= x_170 x_32))) (= x_171 x_159)) (= x_172 x_160)) (= x_86 x_81)) ?v_20) ?v_21) (and (and (and (and (and (and (and (and (and (= x_168 1) (= x_172 x_159)) (= ?v_2 x_81)) (<= (+ ?v_2 x_39) x_86)) (or (and (and (= x_173 0) ?v_20) ?v_21) (and (and (= x_173 1) (= x_157 x_160)) (= x_166 (not x_157))))) (= x_174 x_162)) (= x_169 x_32)) (= x_175 x_34)) (= x_85 x_80)) ?v_22))) (or (or (and (and (and (= x_176 0) ?v_30) (or (not (<= x_82 ?v_24)) (= x_174 x_157))) ?v_25) (and (and (and (= x_176 1) ?v_23) (xor x_157 x_166)) (= x_87 ?v_31))) (and (and (and (= x_176 2) ?v_23) (= x_157 x_166)) ?v_25))) (or (or (and (and (and (= x_177 0) (not ?v_27)) (or (not ?v_26) (= x_171 x_33))) ?v_29) (and (and (and (= x_177 1) ?v_27) (xor x_33 x_170)) (= x_89 ?v_28))) (and (and (and (= x_177 2) ?v_27) (= x_33 x_170)) ?v_29))) (or (or (and (and (and (= x_178 0) ?v_30) (or (not (<= x_83 ?v_24)) (= x_175 x_35))) ?v_33) (and (and (and (= x_178 1) ?v_23) (not ?v_32)) (= x_88 ?v_31))) (and (and (and (= x_178 2) ?v_23) ?v_32) ?v_33))) (or (and (and (and (and (and (and (and (and (and (= x_158 0) (= x_32 x_153)) (= ?v_4 x_75)) (<= (+ ?v_4 x_38) x_80)) (or ?v_36 (= x_33 x_28))) (= x_159 x_150)) (= x_160 x_151)) (= x_81 x_76)) ?v_34) ?v_35) (and (and (and (and (and (and (and (and (and (= x_158 1) (= x_160 x_150)) (= ?v_4 x_76)) (<= (+ ?v_4 x_39) x_81)) (or (and (and (= x_161 0) ?v_34) ?v_35) (and (and (= x_161 1) (= x_148 x_151)) (= x_157 (not x_148))))) (= x_162 x_153)) (= x_32 x_28)) (= x_34 x_30)) (= x_80 x_75)) ?v_36))) (or (or (and (and (and (= x_163 0) ?v_44) (or (not (<= x_77 ?v_38)) (= x_162 x_148))) ?v_39) (and (and (and (= x_163 1) ?v_37) (xor x_148 x_157)) (= x_82 ?v_45))) (and (and (and (= x_163 2) ?v_37) (= x_148 x_157)) ?v_39))) (or (or (and (and (and (= x_164 0) (not ?v_41)) (or (not ?v_40) (= x_159 x_29))) ?v_43) (and (and (and (= x_164 1) ?v_41) (xor x_29 x_33)) (= x_84 ?v_42))) (and (and (and (= x_164 2) ?v_41) (= x_29 x_33)) ?v_43))) (or (or (and (and (and (= x_165 0) ?v_44) (or (not (<= x_78 ?v_38)) (= x_34 x_31))) ?v_47) (and (and (and (= x_165 1) ?v_37) (not ?v_46)) (= x_83 ?v_45))) (and (and (and (= x_165 2) ?v_37) ?v_46) ?v_47))) (or (and (and (and (and (and (and (and (and (and (= x_149 0) (= x_28 x_144)) (= ?v_6 x_70)) (<= (+ ?v_6 x_38) x_75)) (or ?v_50 (= x_29 x_24))) (= x_150 x_141)) (= x_151 x_142)) (= x_76 x_71)) ?v_48) ?v_49) (and (and (and (and (and (and (and (and (and (= x_149 1) (= x_151 x_141)) (= ?v_6 x_71)) (<= (+ ?v_6 x_39) x_76)) (or (and (and (= x_152 0) ?v_48) ?v_49) (and (and (= x_152 1) (= x_139 x_142)) (= x_148 (not x_139))))) (= x_153 x_144)) (= x_28 x_24)) (= x_30 x_26)) (= x_75 x_70)) ?v_50))) (or (or (and (and (and (= x_154 0) ?v_58) (or (not (<= x_72 ?v_52)) (= x_153 x_139))) ?v_53) (and (and (and (= x_154 1) ?v_51) (xor x_139 x_148)) (= x_77 ?v_59))) (and (and (and (= x_154 2) ?v_51) (= x_139 x_148)) ?v_53))) (or (or (and (and (and (= x_155 0) (not ?v_55)) (or (not ?v_54) (= x_150 x_25))) ?v_57) (and (and (and (= x_155 1) ?v_55) (xor x_25 x_29)) (= x_79 ?v_56))) (and (and (and (= x_155 2) ?v_55) (= x_25 x_29)) ?v_57))) (or (or (and (and (and (= x_156 0) ?v_58) (or (not (<= x_73 ?v_52)) (= x_30 x_27))) ?v_61) (and (and (and (= x_156 1) ?v_51) (not ?v_60)) (= x_78 ?v_59))) (and (and (and (= x_156 2) ?v_51) ?v_60) ?v_61))) (or (and (and (and (and (and (and (and (and (and (= x_140 0) (= x_24 x_135)) (= ?v_8 x_65)) (<= (+ ?v_8 x_38) x_70)) (or ?v_64 (= x_25 x_20))) (= x_141 x_132)) (= x_142 x_133)) (= x_71 x_66)) ?v_62) ?v_63) (and (and (and (and (and (and (and (and (and (= x_140 1) (= x_142 x_132)) (= ?v_8 x_66)) (<= (+ ?v_8 x_39) x_71)) (or (and (and (= x_143 0) ?v_62) ?v_63) (and (and (= x_143 1) (= x_130 x_133)) (= x_139 (not x_130))))) (= x_144 x_135)) (= x_24 x_20)) (= x_26 x_22)) (= x_70 x_65)) ?v_64))) (or (or (and (and (and (= x_145 0) ?v_72) (or (not (<= x_67 ?v_66)) (= x_144 x_130))) ?v_67) (and (and (and (= x_145 1) ?v_65) (xor x_130 x_139)) (= x_72 ?v_73))) (and (and (and (= x_145 2) ?v_65) (= x_130 x_139)) ?v_67))) (or (or (and (and (and (= x_146 0) (not ?v_69)) (or (not ?v_68) (= x_141 x_21))) ?v_71) (and (and (and (= x_146 1) ?v_69) (xor x_21 x_25)) (= x_74 ?v_70))) (and (and (and (= x_146 2) ?v_69) (= x_21 x_25)) ?v_71))) (or (or (and (and (and (= x_147 0) ?v_72) (or (not (<= x_68 ?v_66)) (= x_26 x_23))) ?v_75) (and (and (and (= x_147 1) ?v_65) (not ?v_74)) (= x_73 ?v_73))) (and (and (and (= x_147 2) ?v_65) ?v_74) ?v_75))) (or (and (and (and (and (and (and (and (and (and (= x_131 0) (= x_20 x_126)) (= ?v_10 x_60)) (<= (+ ?v_10 x_38) x_65)) (or ?v_78 (= x_21 x_16))) (= x_132 x_123)) (= x_133 x_124)) (= x_66 x_61)) ?v_76) ?v_77) (and (and (and (and (and (and (and (and (and (= x_131 1) (= x_133 x_123)) (= ?v_10 x_61)) (<= (+ ?v_10 x_39) x_66)) (or (and (and (= x_134 0) ?v_76) ?v_77) (and (and (= x_134 1) (= x_121 x_124)) (= x_130 (not x_121))))) (= x_135 x_126)) (= x_20 x_16)) (= x_22 x_18)) (= x_65 x_60)) ?v_78))) (or (or (and (and (and (= x_136 0) ?v_86) (or (not (<= x_62 ?v_80)) (= x_135 x_121))) ?v_81) (and (and (and (= x_136 1) ?v_79) (xor x_121 x_130)) (= x_67 ?v_87))) (and (and (and (= x_136 2) ?v_79) (= x_121 x_130)) ?v_81))) (or (or (and (and (and (= x_137 0) (not ?v_83)) (or (not ?v_82) (= x_132 x_17))) ?v_85) (and (and (and (= x_137 1) ?v_83) (xor x_17 x_21)) (= x_69 ?v_84))) (and (and (and (= x_137 2) ?v_83) (= x_17 x_21)) ?v_85))) (or (or (and (and (and (= x_138 0) ?v_86) (or (not (<= x_63 ?v_80)) (= x_22 x_19))) ?v_89) (and (and (and (= x_138 1) ?v_79) (not ?v_88)) (= x_68 ?v_87))) (and (and (and (= x_138 2) ?v_79) ?v_88) ?v_89))) (or (and (and (and (and (and (and (and (and (and (= x_122 0) (= x_16 x_117)) (= ?v_12 x_55)) (<= (+ ?v_12 x_38) x_60)) (or ?v_92 (= x_17 x_12))) (= x_123 x_114)) (= x_124 x_115)) (= x_61 x_56)) ?v_90) ?v_91) (and (and (and (and (and (and (and (and (and (= x_122 1) (= x_124 x_114)) (= ?v_12 x_56)) (<= (+ ?v_12 x_39) x_61)) (or (and (and (= x_125 0) ?v_90) ?v_91) (and (and (= x_125 1) (= x_112 x_115)) (= x_121 (not x_112))))) (= x_126 x_117)) (= x_16 x_12)) (= x_18 x_14)) (= x_60 x_55)) ?v_92))) (or (or (and (and (and (= x_127 0) ?v_100) (or (not (<= x_57 ?v_94)) (= x_126 x_112))) ?v_95) (and (and (and (= x_127 1) ?v_93) (xor x_112 x_121)) (= x_62 ?v_101))) (and (and (and (= x_127 2) ?v_93) (= x_112 x_121)) ?v_95))) (or (or (and (and (and (= x_128 0) (not ?v_97)) (or (not ?v_96) (= x_123 x_13))) ?v_99) (and (and (and (= x_128 1) ?v_97) (xor x_13 x_17)) (= x_64 ?v_98))) (and (and (and (= x_128 2) ?v_97) (= x_13 x_17)) ?v_99))) (or (or (and (and (and (= x_129 0) ?v_100) (or (not (<= x_58 ?v_94)) (= x_18 x_15))) ?v_103) (and (and (and (= x_129 1) ?v_93) (not ?v_102)) (= x_63 ?v_101))) (and (and (and (= x_129 2) ?v_93) ?v_102) ?v_103))) (or (and (and (and (and (and (and (and (and (and (= x_113 0) (= x_12 x_108)) (= ?v_14 x_50)) (<= (+ ?v_14 x_38) x_55)) (or ?v_106 (= x_13 x_8))) (= x_114 x_105)) (= x_115 x_106)) (= x_56 x_51)) ?v_104) ?v_105) (and (and (and (and (and (and (and (and (and (= x_113 1) (= x_115 x_105)) (= ?v_14 x_51)) (<= (+ ?v_14 x_39) x_56)) (or (and (and (= x_116 0) ?v_104) ?v_105) (and (and (= x_116 1) (= x_103 x_106)) (= x_112 (not x_103))))) (= x_117 x_108)) (= x_12 x_8)) (= x_14 x_10)) (= x_55 x_50)) ?v_106))) (or (or (and (and (and (= x_118 0) ?v_114) (or (not (<= x_52 ?v_108)) (= x_117 x_103))) ?v_109) (and (and (and (= x_118 1) ?v_107) (xor x_103 x_112)) (= x_57 ?v_115))) (and (and (and (= x_118 2) ?v_107) (= x_103 x_112)) ?v_109))) (or (or (and (and (and (= x_119 0) (not ?v_111)) (or (not ?v_110) (= x_114 x_9))) ?v_113) (and (and (and (= x_119 1) ?v_111) (xor x_9 x_13)) (= x_59 ?v_112))) (and (and (and (= x_119 2) ?v_111) (= x_9 x_13)) ?v_113))) (or (or (and (and (and (= x_120 0) ?v_114) (or (not (<= x_53 ?v_108)) (= x_14 x_11))) ?v_117) (and (and (and (= x_120 1) ?v_107) (not ?v_116)) (= x_58 ?v_115))) (and (and (and (= x_120 2) ?v_107) ?v_116) ?v_117))) (or (and (and (and (and (and (and (and (and (and (= x_104 0) (= x_8 x_99)) (= ?v_16 x_45)) (<= (+ ?v_16 x_38) x_50)) (or ?v_120 (= x_9 x_4))) (= x_105 x_94)) (= x_106 x_96)) (= x_51 x_46)) ?v_118) ?v_119) (and (and (and (and (and (and (and (and (and (= x_104 1) (= x_106 x_94)) (= ?v_16 x_46)) (<= (+ ?v_16 x_39) x_51)) (or (and (and (= x_107 0) ?v_118) ?v_119) (and (and (= x_107 1) (= x_90 x_96)) (= x_103 (not x_90))))) (= x_108 x_99)) (= x_8 x_4)) (= x_10 x_6)) (= x_50 x_45)) ?v_120))) (or (or (and (and (and (= x_109 0) ?v_128) (or (not (<= x_47 ?v_122)) (= x_108 x_90))) ?v_123) (and (and (and (= x_109 1) ?v_121) (xor x_90 x_103)) (= x_52 ?v_129))) (and (and (and (= x_109 2) ?v_121) (= x_90 x_103)) ?v_123))) (or (or (and (and (and (= x_110 0) (not ?v_125)) (or (not ?v_124) (= x_105 x_5))) ?v_127) (and (and (and (= x_110 1) ?v_125) (xor x_5 x_9)) (= x_54 ?v_126))) (and (and (and (= x_110 2) ?v_125) (= x_5 x_9)) ?v_127))) (or (or (and (and (and (= x_111 0) ?v_128) (or (not (<= x_48 ?v_122)) (= x_10 x_7))) ?v_131) (and (and (and (= x_111 1) ?v_121) (not ?v_130)) (= x_53 ?v_129))) (and (and (and (= x_111 2) ?v_121) ?v_130) ?v_131))) (or (and (and (and (and (and (and (and (and (and (= x_92 0) (= x_4 x_93)) (= ?v_18 x_36)) (<= (+ ?v_18 x_38) x_45)) (or ?v_134 (= x_5 x_0))) (= x_94 x_95)) (= x_96 x_97)) (= x_46 x_37)) ?v_132) ?v_133) (and (and (and (and (and (and (and (and (and (= x_92 1) (= x_96 x_95)) (= ?v_18 x_37)) (<= (+ ?v_18 x_39) x_46)) (or (and (and (= x_98 0) ?v_132) ?v_133) (and (and (= x_98 1) (= x_91 x_97)) (= x_90 (not x_91))))) (= x_99 x_93)) (= x_4 x_0)) (= x_6 x_2)) (= x_45 x_36)) ?v_134))) (or (or (and (and (and (= x_100 0) ?v_142) (or (not (<= x_41 ?v_136)) (= x_99 x_91))) ?v_137) (and (and (and (= x_100 1) ?v_135) (xor x_91 x_90)) (= x_47 ?v_143))) (and (and (and (= x_100 2) ?v_135) (= x_91 x_90)) ?v_137))) (or (or (and (and (and (= x_101 0) (not ?v_139)) (or (not ?v_138) (= x_94 x_1))) ?v_141) (and (and (and (= x_101 1) ?v_139) (xor x_1 x_5)) (= x_49 ?v_140))) (and (and (and (= x_101 2) ?v_139) (= x_1 x_5)) ?v_141))) (or (or (and (and (and (= x_102 0) ?v_142) (or (not (<= x_42 ?v_136)) (= x_6 x_3))) ?v_145) (and (and (and (= x_102 1) ?v_135) (not ?v_144)) (= x_48 ?v_143))) (and (and (and (= x_102 2) ?v_135) ?v_144) ?v_145))) (xor x_169 x_170)) (not (= x_175 x_167)))))))))))))))
(check-sat)
(exit)
